benchmarks_CP/INST_36x36/45/inst36x36_45_51.dzn
S=6;
start=[|
-1,	2,	-1,	-1,	-1,	22,	16,	-1,	-1,	-1,	15,	28,	-1,	23,	-1,	-1,	-1,	-1,	-1,	-1,	-1,	-1,	24,	-1,	-1,	-1,	30,	-1,	-1,	-1,	3,	17,	31,	-1,	-1,	-1|
27,	3,	30,	-1,	-1,	-1,	-1,	5,	-1,	-1,	9,	-1,	-1,	-1,	-1,	28,	-1,	36,	13,	-1,	-1,	19,	-1,	7,	6,	-1,	32,	14,	29,	-1,	18,	-1,	35,	25,	11,	4|
-1,	16,	-1,	-1,	4,	29,	-1,	-1,	11,	20,	31,	19,	-1,	1,	-1,	-1,	5,	14,	12,	-1,	-1,	-1,	-1,	-1,	10,	-1,	23,	-1,	-1,	25,	-1,	-1,	-1,	-1,	27,	7|
-1,	8,	-1,	28,	31,	-1,	23,	32,	-1,	-1,	3,	-1,	-1,	-1,	-1,	-1,	18,	-1,	-1,	22,	5,	15,	-1,	1,	-1,	27,	-1,	-1,	9,	-1,	-1,	29,	30,	-1,	-1,	2|
-1,	25,	10,	-1,	9,	18,	-1,	-1,	-1,	-1,	-1,	-1,	35,	2,	24,	-1,	30,	15,	-1,	-1,	-1,	17,	-1,	14,	5,	-1,	-1,	-1,	22,	-1,	-1,	34,	-1,	16,	23,	1|
5,	-1,	-1,	-1,	24,	23,	-1,	13,	30,	35,	-1,	27,	-1,	-1,	-1,	7,	-1,	20,	3,	-1,	10,	2,	8,	-1,	-1,	-1,	-1,	-1,	-1,	34,	-1,	-1,	-1,	36,	-1,	12|
11,	-1,	24,	4,	-1,	-1,	-1,	1,	-1,	3,	-1,	-1,	12,	27,	6,	36,	34,	17,	26,	16,	-1,	18,	-1,	29,	20,	-1,	31,	-1,	23,	15,	-1,	-1,	10,	2,	-1,	-1|
25,	9,	13,	-1,	-1,	-1,	35,	15,	-1,	21,	-1,	32,	1,	-1,	-1,	24,	-1,	26,	-1,	34,	-1,	5,	-1,	-1,	-1,	14,	-1,	-1,	-1,	-1,	-1,	-1,	20,	-1,	-1,	-1|
-1,	-1,	-1,	-1,	-1,	-1,	-1,	19,	-1,	4,	-1,	-1,	-1,	-1,	25,	-1,	-1,	-1,	31,	-1,	-1,	-1,	-1,	20,	-1,	5,	9,	-1,	12,	-1,	-1,	-1,	7,	-1,	-1,	-1|
-1,	7,	5,	-1,	-1,	12,	-1,	-1,	-1,	-1,	-1,	20,	-1,	-1,	-1,	-1,	21,	4,	2,	-1,	3,	-1,	-1,	-1,	34,	30,	-1,	27,	26,	-1,	1,	-1,	-1,	-1,	-1,	-1|
19,	28,	20,	36,	6,	-1,	31,	-1,	-1,	-1,	26,	-1,	-1,	7,	-1,	2,	15,	9,	-1,	-1,	-1,	-1,	25,	17,	-1,	35,	-1,	16,	-1,	-1,	-1,	-1,	-1,	23,	-1,	24|
3,	26,	27,	-1,	-1,	-1,	17,	-1,	24,	-1,	25,	23,	-1,	-1,	-1,	30,	-1,	-1,	9,	-1,	-1,	28,	-1,	-1,	1,	-1,	-1,	-1,	8,	29,	36,	-1,	21,	-1,	-1,	-1|
31,	34,	2,	8,	29,	-1,	24,	4,	-1,	-1,	-1,	33,	-1,	-1,	-1,	-1,	-1,	-1,	25,	-1,	-1,	11,	1,	18,	-1,	-1,	28,	23,	-1,	-1,	30,	-1,	-1,	20,	-1,	-1|
-1,	-1,	-1,	-1,	-1,	-1,	19,	-1,	-1,	-1,	29,	21,	24,	16,	30,	-1,	9,	-1,	-1,	-1,	13,	-1,	5,	-1,	25,	-1,	-1,	-1,	27,	31,	-1,	-1,	32,	-1,	-1,	-1|
10,	36,	-1,	-1,	32,	13,	30,	-1,	1,	-1,	-1,	11,	-1,	19,	-1,	-1,	26,	-1,	35,	21,	2,	12,	16,	8,	18,	3,	20,	-1,	-1,	17,	9,	4,	-1,	-1,	-1,	31|
21,	-1,	1,	24,	16,	4,	5,	28,	-1,	15,	-1,	-1,	11,	32,	-1,	10,	2,	-1,	-1,	-1,	-1,	-1,	3,	26,	-1,	-1,	-1,	-1,	-1,	13,	-1,	-1,	-1,	-1,	18,	14|
30,	-1,	35,	9,	-1,	-1,	-1,	27,	-1,	-1,	-1,	-1,	-1,	-1,	34,	-1,	14,	8,	-1,	24,	22,	-1,	-1,	-1,	-1,	-1,	-1,	-1,	21,	-1,	-1,	16,	-1,	19,	28,	6|
26,	-1,	-1,	25,	-1,	-1,	-1,	36,	-1,	31,	-1,	-1,	23,	13,	-1,	4,	-1,	28,	19,	-1,	15,	34,	14,	-1,	29,	-1,	10,	5,	30,	-1,	21,	1,	3,	-1,	-1,	-1|
6,	19,	-1,	-1,	-1,	-1,	-1,	-1,	-1,	9,	-1,	16,	-1,	11,	-1,	3,	-1,	-1,	-1,	10,	-1,	26,	35,	23,	-1,	-1,	-1,	-1,	-1,	-1,	-1,	24,	-1,	-1,	-1,	-1|
24,	30,	4,	-1,	33,	1,	-1,	11,	-1,	6,	19,	3,	34,	10,	-1,	-1,	36,	-1,	17,	-1,	-1,	-1,	-1,	-1,	-1,	21,	29,	-1,	-1,	-1,	-1,	35,	-1,	7,	-1,	-1|
36,	31,	-1,	23,	13,	-1,	-1,	-1,	-1,	30,	-1,	26,	9,	12,	28,	17,	6,	-1,	-1,	11,	25,	-1,	-1,	-1,	-1,	-1,	7,	-1,	-1,	-1,	-1,	21,	-1,	4,	2,	3|
-1,	12,	9,	3,	-1,	26,	32,	20,	4,	33,	-1,	-1,	-1,	-1,	-1,	22,	-1,	-1,	-1,	-1,	1,	-1,	-1,	-1,	16,	-1,	8,	25,	-1,	-1,	-1,	-1,	36,	30,	19,	17|
34,	-1,	-1,	-1,	-1,	-1,	-1,	-1,	14,	-1,	2,	-1,	30,	-1,	-1,	-1,	24,	27,	32,	-1,	36,	-1,	7,	-1,	26,	-1,	-1,	-1,	4,	-1,	-1,	-1,	11,	9,	33,	18|
7,	-1,	-1,	14,	-1,	16,	13,	-1,	-1,	-1,	-1,	36,	-1,	29,	23,	33,	-1,	31,	4,	-1,	34,	9,	19,	3,	22,	-1,	18,	10,	-1,	-1,	-1,	32,	12,	-1,	-1,	-1|
33,	6,	-1,	7,	-1,	3,	25,	35,	-1,	-1,	11,	-1,	27,	-1,	4,	-1,	19,	-1,	-1,	-1,	24,	10,	-1,	31,	-1,	23,	34,	-1,	-1,	8,	-1,	12,	-1,	18,	-1,	21|
-1,	-1,	8,	-1,	22,	-1,	-1,	7,	-1,	24,	-1,	17,	-1,	31,	21,	25,	-1,	16,	-1,	33,	35,	-1,	-1,	-1,	4,	-1,	12,	6,	-1,	-1,	32,	-1,	-1,	-1,	30,	29|
28,	-1,	-1,	11,	-1,	-1,	8,	-1,	33,	29,	-1,	31,	-1,	-1,	-1,	-1,	3,	34,	30,	-1,	-1,	7,	-1,	15,	-1,	10,	-1,	17,	-1,	-1,	4,	-1,	24,	-1,	20,	-1|
4,	-1,	17,	-1,	25,	2,	-1,	16,	-1,	-1,	-1,	6,	20,	24,	18,	-1,	-1,	-1,	-1,	14,	9,	27,	-1,	-1,	-1,	33,	-1,	30,	-1,	-1,	5,	-1,	-1,	-1,	-1,	-1|
-1,	24,	18,	-1,	34,	36,	14,	-1,	-1,	-1,	-1,	4,	28,	5,	7,	-1,	-1,	-1,	16,	19,	8,	13,	-1,	25,	27,	29,	11,	-1,	-1,	21,	17,	33,	-1,	10,	-1,	-1|
-1,	10,	-1,	19,	-1,	-1,	-1,	-1,	-1,	27,	-1,	2,	26,	-1,	-1,	-1,	-1,	-1,	-1,	4,	-1,	-1,	11,	-1,	14,	-1,	-1,	-1,	-1,	-1,	-1,	-1,	25,	-1,	3,	22|
-1,	-1,	29,	-1,	-1,	11,	1,	26,	28,	16,	-1,	15,	17,	4,	12,	-1,	13,	21,	24,	-1,	-1,	-1,	2,	33,	-1,	36,	-1,	-1,	-1,	20,	25,	30,	-1,	-1,	-1,	10|
8,	-1,	3,	-1,	12,	31,	-1,	24,	-1,	-1,	-1,	9,	-1,	30,	-1,	-1,	-1,	7,	-1,	26,	-1,	25,	-1,	-1,	15,	-1,	17,	28,	1,	-1,	-1,	-1,	-1,	-1,	-1,	-1|
-1,	1,	-1,	10,	5,	-1,	-1,	-1,	31,	22,	-1,	13,	-1,	28,	-1,	-1,	20,	-1,	8,	17,	-1,	-1,	9,	4,	-1,	-1,	6,	-1,	11,	32,	-1,	-1,	-1,	24,	34,	-1|
-1,	-1,	34,	2,	-1,	9,	21,	-1,	-1,	-1,	-1,	-1,	-1,	-1,	1,	32,	-1,	-1,	10,	5,	-1,	35,	12,	-1,	-1,	4,	24,	-1,	-1,	16,	-1,	19,	18,	3,	-1,	20|
32,	-1,	-1,	17,	30,	-1,	-1,	-1,	36,	2,	5,	-1,	3,	9,	-1,	-1,	23,	10,	11,	18,	-1,	-1,	-1,	6,	-1,	-1,	27,	21,	19,	-1,	-1,	26,	28,	-1,	7,	15|
23,	-1,	7,	-1,	-1,	-1,	18,	-1,	-1,	19,	6,	-1,	-1,	-1,	33,	14,	11,	-1,	27,	-1,	32,	-1,	-1,	-1,	35,	9,	26,	-1,	5,	-1,	-1,	-1,	-1,	-1,	-1,	-1|];
