benchmarks/INST_36x36/45/inst36x36_45_51.txt
6
1
35	2	19	-1	-1	22	16	-1	-1	-1	-1	-1	-1	23	9	12	25	-1	33	29	26	20	24	-1	8	-1	-1	-1	-1	18	-1	-1	31	-1	21	5
27	-1	-1	-1	-1	-1	22	-1	26	1	9	-1	-1	-1	-1	28	-1	-1	13	-1	16	19	31	-1	-1	15	32	14	-1	2	18	-1	35	-1	11	4
-1	16	33	-1	-1	29	36	-1	-1	-1	31	-1	21	-1	3	34	-1	-1	-1	-1	18	-1	6	-1	-1	-1	23	-1	24	25	-1	-1	15	13	-1	-1
-1	-1	-1	-1	-1	7	23	-1	21	-1	3	25	16	26	-1	-1	-1	-1	-1	22	-1	-1	-1	-1	-1	-1	35	12	-1	-1	-1	-1	-1	14	-1	-1
13	25	-1	26	-1	-1	-1	-1	-1	12	4	29	-1	-1	24	-1	30	15	28	-1	11	-1	-1	14	-1	-1	21	20	-1	-1	-1	34	-1	-1	-1	-1
-1	-1	11	-1	-1	-1	-1	13	-1	-1	18	-1	-1	22	-1	-1	-1	-1	3	-1	10	2	8	-1	19	-1	-1	1	-1	-1	-1	9	-1	-1	6	12
-1	32	24	4	8	-1	-1	1	-1	-1	-1	7	12	-1	-1	-1	-1	17	-1	-1	14	-1	-1	-1	20	19	31	13	-1	-1	-1	28	-1	-1	-1	30
25	-1	13	16	17	-1	35	-1	-1	-1	-1	32	-1	18	31	24	28	26	23	34	-1	-1	30	-1	-1	14	22	-1	36	6	27	-1	-1	-1	-1	11
1	22	-1	-1	-1	30	10	19	-1	4	36	-1	-1	-1	-1	13	-1	-1	31	-1	-1	24	-1	20	17	-1	-1	-1	-1	-1	-1	15	7	-1	-1	35
29	7	-1	31	18	-1	-1	22	13	-1	16	-1	10	8	-1	-1	21	-1	-1	15	-1	32	36	35	34	30	-1	27	26	24	-1	-1	-1	33	17	19
-1	28	20	-1	-1	-1	-1	12	-1	34	-1	-1	-1	7	-1	2	-1	9	-1	1	-1	-1	25	-1	-1	-1	3	-1	-1	-1	14	-1	-1	-1	-1	24
-1	-1	-1	34	15	-1	-1	-1	24	18	-1	-1	-1	-1	-1	-1	22	-1	-1	13	-1	28	-1	-1	-1	-1	-1	-1	8	29	36	5	-1	-1	31	16
-1	34	2	8	29	-1	-1	-1	6	-1	35	33	5	-1	-1	21	12	-1	-1	9	27	11	1	18	32	22	-1	-1	16	-1	-1	10	17	20	-1	-1
22	-1	-1	-1	-1	-1	-1	34	3	-1	29	21	24	-1	30	1	9	18	-1	-1	13	-1	5	-1	-1	-1	33	2	27	31	-1	-1	32	35	-1	-1
-1	36	-1	-1	-1	-1	-1	23	-1	-1	-1	11	7	-1	27	-1	26	-1	35	-1	-1	-1	16	-1	-1	3	-1	24	34	-1	9	-1	-1	22	15	-1
21	27	-1	-1	16	-1	5	-1	9	15	-1	22	11	32	-1	-1	2	-1	-1	31	30	23	-1	-1	-1	12	19	-1	-1	13	-1	-1	29	8	18	14
-1	-1	35	9	-1	-1	-1	27	-1	-1	-1	-1	-1	-1	34	31	14	-1	-1	24	22	-1	-1	36	11	-1	-1	15	-1	4	-1	16	-1	19	28	6
26	11	12	-1	-1	6	-1	36	-1	31	17	18	23	-1	22	-1	-1	28	19	-1	-1	34	14	32	29	8	-1	-1	-1	-1	21	1	-1	27	-1	-1
6	-1	-1	-1	-1	8	7	-1	12	-1	22	-1	-1	-1	-1	3	4	1	-1	-1	21	-1	35	-1	30	-1	-1	-1	-1	-1	-1	-1	34	-1	-1	-1
24	-1	4	18	-1	-1	-1	-1	-1	6	-1	3	-1	-1	16	26	-1	25	-1	12	20	31	-1	2	-1	-1	29	-1	14	5	-1	-1	-1	-1	22	8
-1	31	-1	-1	13	15	27	18	-1	-1	-1	-1	9	12	28	17	-1	32	14	11	25	-1	-1	5	24	-1	-1	19	-1	-1	16	21	1	4	-1	3
2	12	-1	3	10	26	32	20	-1	33	-1	-1	18	-1	-1	22	7	5	-1	27	1	-1	-1	24	-1	-1	8	-1	-1	23	-1	31	-1	30	19	17
-1	-1	25	-1	35	-1	-1	-1	-1	23	-1	-1	30	-1	-1	20	24	-1	32	8	-1	16	-1	22	-1	6	15	3	-1	-1	10	-1	11	9	-1	18
-1	-1	-1	-1	11	16	-1	-1	-1	5	24	-1	-1	-1	23	-1	-1	-1	-1	30	34	9	19	3	22	-1	18	-1	-1	-1	6	-1	-1	-1	-1	25
-1	6	26	7	20	3	25	-1	-1	-1	-1	-1	-1	17	4	9	-1	-1	1	-1	-1	-1	29	-1	-1	23	34	-1	-1	-1	15	12	-1	-1	-1	21
-1	-1	-1	-1	-1	27	34	-1	-1	24	-1	17	-1	31	-1	-1	10	-1	-1	33	35	3	23	-1	-1	-1	-1	-1	18	-1	-1	-1	-1	-1	-1	29
-1	5	14	-1	-1	-1	-1	9	33	29	-1	31	22	-1	-1	-1	3	34	30	-1	-1	-1	18	-1	2	10	-1	-1	-1	-1	-1	-1	24	26	20	-1
-1	29	17	35	-1	-1	-1	16	-1	36	28	-1	-1	-1	-1	-1	-1	-1	-1	-1	9	27	-1	-1	3	33	13	-1	15	7	-1	8	19	-1	-1	-1
12	-1	-1	-1	-1	36	14	-1	20	-1	23	-1	-1	5	7	15	-1	-1	16	-1	-1	13	26	-1	-1	-1	11	-1	-1	-1	17	33	-1	-1	-1	-1
-1	-1	-1	-1	23	-1	15	-1	18	-1	30	-1	26	6	8	-1	-1	-1	20	-1	17	-1	-1	-1	-1	24	-1	-1	-1	-1	-1	-1	25	-1	-1	22
-1	-1	29	27	-1	-1	-1	26	28	-1	32	15	-1	-1	12	5	-1	21	-1	7	-1	-1	-1	-1	-1	36	-1	34	3	20	-1	-1	-1	-1	9	-1
-1	-1	-1	6	12	31	4	-1	-1	11	-1	-1	19	30	-1	16	27	-1	36	26	29	-1	-1	-1	-1	-1	-1	28	1	10	-1	14	22	-1	-1	32
14	1	-1	10	5	-1	3	-1	-1	22	-1	-1	15	28	-1	18	20	-1	-1	17	-1	-1	-1	-1	-1	2	6	-1	-1	-1	-1	23	-1	-1	34	-1
-1	13	-1	-1	26	-1	21	-1	-1	-1	-1	-1	6	-1	1	-1	31	-1	-1	5	28	-1	12	-1	-1	4	-1	-1	-1	16	-1	-1	18	3	-1	-1
32	-1	16	-1	-1	-1	-1	-1	-1	2	-1	35	-1	-1	29	-1	23	10	11	18	31	14	34	6	-1	-1	27	21	-1	22	12	26	28	1	7	-1
-1	-1	-1	-1	28	-1	18	10	25	-1	6	12	-1	34	33	-1	-1	-1	-1	-1	32	1	15	16	35	-1	-1	-1	5	30	31	2	-1	-1	-1	-1
